param n := 120;
param c := 150;
param : V : p w :=
   0	  39	  29
   1	  36	  26
   2	  93	  83
   3	  92	  82
   4	 102	  92
   5	 105	  95
   6	  97	  87
   7	  73	  63
   8	  67	  57
   9	 110	 100
  10	  73	  63
  11	  75	  65
  12	  91	  81
  13	  56	  46
  14	  52	  42
  15	 105	  95
  16	 100	  90
  17	  90	  80
  18	  63	  53
  19	  37	  27
  20	  94	  84
  21	  50	  40
  22	  32	  22
  23	 107	  97
  24	  30	  20
  25	  83	  73
  26	  73	  63
  27	 105	  95
  28	  56	  46
  29	  52	  42
  30	  57	  47
  31	  50	  40
  32	  36	  26
  33	  98	  88
  34	  59	  49
  35	  34	  24
  36	 102	  92
  37	  97	  87
  38	  78	  68
  39	 105	  95
  40	  44	  34
  41	  92	  82
  42	  94	  84
  43	  53	  43
  44	  64	  54
  45	  83	  73
  46	  76	  66
  47	  42	  32
  48	  72	  62
  49	  58	  48
  50	 109	  99
  51	 100	  90
  52	  96	  86
  53	  38	  28
  54	  35	  25
  55	  35	  25
  56	  99	  89
  57	  77	  67
  58	 106	  96
  59	  45	  35
  60	  43	  33
  61	  80	  70
  62	  50	  40
  63	  69	  59
  64	  42	  32
  65	 104	  94
  66	  44	  34
  67	  96	  86
  68	  45	  35
  69	  55	  45
  70	  35	  25
  71	  86	  76
  72	  90	  80
  73	  52	  42
  74	 101	  91
  75	  54	  44
  76	 101	  91
  77	 107	  97
  78	  70	  60
  79	  39	  29
  80	  55	  45
  81	  47	  37
  82	  71	  61
  83	  64	  54
  84	  88	  78
  85	  66	  56
  86	  84	  74
  87	  84	  74
  88	  55	  45
  89	  31	  21
  90	 106	  96
  91	  47	  37
  92	  85	  75
  93	 110	 100
  94	  68	  58
  95	  94	  84
  96	  95	  85
  97	  66	  56
  98	  64	  54
  99	  81	  71
 100	  62	  52
 101	  89	  79
 102	  53	  43
 103	  45	  35
 104	  37	  27
 105	  80	  70
 106	  41	  31
 107	  57	  47
 108	  45	  35
 109	  36	  26
 110	  40	  30
 111	 107	  97
 112	 100	  90
 113	  90	  80
 114	  68	  58
 115	  70	  60
 116	  83	  73
 117	  56	  46
 118	  81	  71
 119	  49	  39
;

set E :=
   0	   5
   0	  11
   0	  13
   0	  14
   0	  20
   0	  21
   0	  27
   0	  31
   0	  35
   0	  39
   0	  40
   0	  42
   0	  43
   0	  44
   0	  46
   0	  48
   0	  50
   0	  56
   0	  58
   0	  61
   0	  64
   0	  71
   0	  75
   0	  76
   0	  77
   0	  81
   0	  82
   0	  84
   0	  87
   0	  92
   0	  94
   0	  95
   0	 102
   0	 103
   0	 110
   0	 114
   0	 115
   0	 118
   1	   2
   1	   3
   1	   4
   1	  11
   1	  16
   1	  17
   1	  24
   1	  25
   1	  31
   1	  32
   1	  34
   1	  35
   1	  38
   1	  39
   1	  42
   1	  47
   1	  52
   1	  54
   1	  57
   1	  63
   1	  64
   1	  65
   1	  69
   1	  73
   1	  74
   1	  76
   1	  79
   1	  82
   1	  83
   1	  87
   1	  88
   1	  92
   1	  93
   1	  94
   1	  95
   1	 101
   1	 106
   1	 112
   1	 115
   1	 119
   2	   9
   2	  11
   2	  15
   2	  21
   2	  27
   2	  28
   2	  35
   2	  36
   2	  39
   2	  41
   2	  45
   2	  47
   2	  48
   2	  50
   2	  53
   2	  55
   2	  57
   2	  58
   2	  67
   2	  71
   2	  78
   2	  83
   2	  85
   2	  86
   2	  87
   2	  89
   2	  91
   2	  95
   2	  97
   2	  98
   2	  99
   2	 101
   2	 102
   2	 105
   2	 107
   2	 109
   2	 112
   2	 117
   3	   6
   3	  14
   3	  19
   3	  22
   3	  28
   3	  34
   3	  38
   3	  43
   3	  48
   3	  50
   3	  61
   3	  63
   3	  66
   3	  68
   3	  70
   3	  74
   3	  77
   3	  81
   3	  82
   3	  86
   3	  88
   3	  89
   3	  90
   3	  93
   3	 100
   3	 104
   3	 106
   3	 107
   3	 111
   3	 112
   3	 115
   3	 116
   3	 117
   3	 118
   4	   5
   4	  11
   4	  13
   4	  14
   4	  15
   4	  22
   4	  33
   4	  34
   4	  35
   4	  38
   4	  41
   4	  45
   4	  50
   4	  55
   4	  63
   4	  66
   4	  67
   4	  69
   4	  72
   4	  73
   4	  74
   4	  81
   4	  84
   4	  85
   4	  92
   4	  96
   4	 102
   4	 116
   4	 118
   5	   9
   5	  20
   5	  21
   5	  33
   5	  34
   5	  35
   5	  38
   5	  39
   5	  40
   5	  45
   5	  51
   5	  53
   5	  55
   5	  58
   5	  59
   5	  62
   5	  68
   5	  72
   5	  76
   5	  78
   5	  82
   5	  84
   5	  88
   5	  89
   5	  92
   5	  94
   5	 100
   5	 103
   5	 105
   5	 106
   5	 108
   5	 115
   5	 116
   5	 117
   5	 118
   6	   7
   6	   9
   6	  10
   6	  12
   6	  13
   6	  16
   6	  19
   6	  21
   6	  30
   6	  35
   6	  36
   6	  37
   6	  38
   6	  41
   6	  43
   6	  44
   6	  45
   6	  49
   6	  50
   6	  53
   6	  56
   6	  61
   6	  63
   6	  64
   6	  71
   6	  77
   6	  78
   6	  81
   6	  83
   6	  84
   6	  85
   6	  86
   6	  87
   6	  89
   6	  93
   6	  98
   6	 101
   6	 102
   6	 105
   6	 108
   6	 113
   6	 115
   6	 116
   7	  12
   7	  19
   7	  20
   7	  23
   7	  24
   7	  25
   7	  27
   7	  29
   7	  30
   7	  31
   7	  35
   7	  36
   7	  37
   7	  38
   7	  39
   7	  41
   7	  44
   7	  49
   7	  55
   7	  57
   7	  61
   7	  66
   7	  69
   7	  71
   7	  77
   7	  80
   7	  88
   7	  97
   7	  99
   7	 103
   7	 104
   7	 105
   7	 106
   7	 107
   7	 109
   7	 112
   7	 113
   7	 115
   7	 116
   8	   9
   8	  15
   8	  18
   8	  19
   8	  20
   8	  21
   8	  25
   8	  28
   8	  31
   8	  32
   8	  34
   8	  39
   8	  40
   8	  46
   8	  51
   8	  68
   8	  71
   8	  80
   8	  81
   8	  85
   8	  87
   8	  88
   8	  91
   8	  98
   8	 100
   8	 103
   8	 110
   8	 118
   8	 119
   9	  13
   9	  14
   9	  23
   9	  24
   9	  26
   9	  32
   9	  34
   9	  35
   9	  38
   9	  45
   9	  47
   9	  49
   9	  53
   9	  57
   9	  64
   9	  69
   9	  74
   9	  76
   9	  79
   9	  80
   9	  81
   9	  82
   9	  83
   9	  86
   9	  89
   9	  92
   9	 103
   9	 111
   9	 117
  10	  18
  10	  20
  10	  23
  10	  26
  10	  29
  10	  30
  10	  35
  10	  39
  10	  42
  10	  44
  10	  51
  10	  55
  10	  56
  10	  62
  10	  63
  10	  68
  10	  69
  10	  70
  10	  72
  10	  76
  10	  77
  10	  78
  10	  84
  10	  85
  10	  86
  10	  87
  10	  89
  10	  90
  10	  94
  10	  95
  10	  98
  10	  99
  10	 114
  10	 118
  10	 119
  11	  18
  11	  22
  11	  23
  11	  24
  11	  28
  11	  29
  11	  37
  11	  38
  11	  42
  11	  45
  11	  52
  11	  54
  11	  55
  11	  62
  11	  64
  11	  67
  11	  69
  11	  72
  11	  73
  11	  74
  11	  78
  11	  85
  11	  88
  11	  90
  11	  91
  11	  95
  11	  96
  11	 109
  11	 111
  11	 119
  12	  13
  12	  18
  12	  21
  12	  22
  12	  23
  12	  27
  12	  32
  12	  39
  12	  41
  12	  46
  12	  48
  12	  50
  12	  51
  12	  52
  12	  56
  12	  61
  12	  64
  12	  71
  12	  73
  12	  76
  12	  78
  12	  80
  12	  81
  12	  89
  12	  90
  12	  92
  12	  93
  12	  94
  12	  96
  12	  97
  12	  99
  12	 100
  12	 101
  12	 103
  12	 106
  12	 112
  12	 113
  12	 118
  13	  14
  13	  17
  13	  18
  13	  20
  13	  26
  13	  29
  13	  31
  13	  34
  13	  38
  13	  42
  13	  43
  13	  49
  13	  51
  13	  52
  13	  54
  13	  55
  13	  56
  13	  57
  13	  63
  13	  64
  13	  66
  13	  67
  13	  75
  13	  84
  13	  87
  13	  88
  13	  95
  13	  96
  13	 103
  13	 104
  13	 106
  13	 107
  13	 108
  13	 110
  13	 113
  13	 114
  13	 115
  13	 117
  13	 118
  14	  18
  14	  26
  14	  29
  14	  33
  14	  34
  14	  41
  14	  42
  14	  43
  14	  44
  14	  45
  14	  47
  14	  53
  14	  55
  14	  56
  14	  62
  14	  64
  14	  72
  14	  73
  14	  78
  14	  79
  14	  81
  14	  82
  14	  85
  14	  86
  14	  88
  14	  96
  14	  99
  14	 102
  14	 107
  14	 112
  14	 113
  14	 114
  14	 118
  15	  22
  15	  34
  15	  41
  15	  53
  15	  56
  15	  60
  15	  63
  15	  64
  15	  66
  15	  71
  15	  72
  15	  73
  15	  74
  15	  79
  15	  81
  15	  83
  15	  88
  15	  89
  15	  91
  15	  92
  15	  94
  15	 101
  15	 103
  15	 111
  16	  21
  16	  24
  16	  26
  16	  27
  16	  30
  16	  32
  16	  33
  16	  35
  16	  36
  16	  38
  16	  39
  16	  40
  16	  45
  16	  52
  16	  53
  16	  56
  16	  60
  16	  61
  16	  70
  16	  71
  16	  72
  16	  74
  16	  75
  16	  76
  16	  79
  16	  80
  16	  82
  16	  84
  16	  87
  16	  89
  16	  91
  16	  93
  16	  94
  16	 101
  16	 104
  16	 108
  16	 110
  16	 115
  17	  22
  17	  23
  17	  24
  17	  25
  17	  28
  17	  30
  17	  31
  17	  33
  17	  37
  17	  41
  17	  42
  17	  45
  17	  47
  17	  58
  17	  60
  17	  64
  17	  65
  17	  66
  17	  67
  17	  68
  17	  70
  17	  73
  17	  76
  17	  78
  17	  81
  17	  82
  17	  84
  17	  85
  17	  86
  17	  89
  17	  93
  17	  97
  17	  99
  17	 102
  17	 105
  17	 106
  17	 110
  17	 112
  17	 116
  18	  20
  18	  21
  18	  27
  18	  28
  18	  33
  18	  36
  18	  38
  18	  42
  18	  43
  18	  46
  18	  48
  18	  56
  18	  63
  18	  64
  18	  66
  18	  67
  18	  69
  18	  72
  18	  73
  18	  75
  18	  77
  18	  81
  18	  91
  18	 100
  18	 101
  18	 105
  18	 109
  18	 117
  18	 119
  19	  20
  19	  23
  19	  28
  19	  32
  19	  34
  19	  41
  19	  42
  19	  44
  19	  45
  19	  48
  19	  50
  19	  52
  19	  53
  19	  62
  19	  65
  19	  66
  19	  76
  19	  78
  19	  79
  19	  81
  19	  83
  19	  84
  19	  86
  19	  87
  19	  88
  19	  99
  19	 104
  19	 110
  19	 118
  19	 119
  20	  21
  20	  29
  20	  30
  20	  33
  20	  37
  20	  38
  20	  43
  20	  44
  20	  45
  20	  46
  20	  47
  20	  50
  20	  58
  20	  62
  20	  66
  20	  67
  20	  69
  20	  73
  20	  74
  20	  75
  20	  78
  20	  80
  20	  83
  20	  87
  20	  88
  20	  90
  20	  94
  20	 101
  20	 103
  20	 105
  20	 108
  20	 109
  20	 110
  20	 111
  21	  22
  21	  23
  21	  25
  21	  26
  21	  29
  21	  32
  21	  37
  21	  38
  21	  39
  21	  43
  21	  45
  21	  46
  21	  54
  21	  59
  21	  63
  21	  64
  21	  66
  21	  72
  21	  73
  21	  76
  21	  77
  21	  86
  21	  89
  21	  90
  21	  96
  21	  97
  21	 105
  21	 110
  21	 112
  21	 113
  21	 114
  21	 116
  21	 117
  22	  25
  22	  26
  22	  29
  22	  36
  22	  37
  22	  43
  22	  45
  22	  46
  22	  47
  22	  51
  22	  54
  22	  58
  22	  59
  22	  60
  22	  62
  22	  70
  22	  72
  22	  73
  22	  81
  22	  82
  22	  83
  22	  85
  22	  88
  22	  91
  22	  92
  22	  95
  22	 102
  22	 107
  22	 115
  22	 116
  22	 119
  23	  27
  23	  37
  23	  38
  23	  40
  23	  46
  23	  50
  23	  52
  23	  53
  23	  54
  23	  59
  23	  68
  23	  73
  23	  75
  23	  76
  23	  77
  23	  79
  23	  80
  23	  81
  23	  84
  23	  86
  23	  89
  23	  93
  23	 100
  23	 101
  23	 105
  23	 111
  23	 112
  23	 114
  23	 118
  24	  26
  24	  27
  24	  30
  24	  33
  24	  35
  24	  45
  24	  46
  24	  47
  24	  48
  24	  53
  24	  54
  24	  58
  24	  63
  24	  70
  24	  71
  24	  74
  24	  76
  24	  78
  24	  82
  24	  88
  24	  93
  24	  94
  24	  95
  24	  96
  24	  98
  24	 104
  24	 107
  24	 109
  24	 111
  24	 112
  24	 116
  25	  29
  25	  34
  25	  38
  25	  42
  25	  43
  25	  44
  25	  47
  25	  50
  25	  56
  25	  58
  25	  65
  25	  67
  25	  68
  25	  70
  25	  72
  25	  73
  25	  74
  25	  83
  25	  85
  25	  87
  25	  89
  25	  95
  25	  97
  25	  99
  25	 100
  25	 105
  25	 111
  25	 112
  25	 115
  25	 116
  25	 117
  25	 118
  26	  27
  26	  30
  26	  37
  26	  41
  26	  49
  26	  55
  26	  62
  26	  64
  26	  65
  26	  66
  26	  68
  26	  69
  26	  70
  26	  74
  26	  75
  26	  78
  26	  90
  26	  96
  26	  98
  26	  99
  26	 102
  26	 105
  26	 108
  26	 110
  26	 111
  26	 116
  26	 118
  27	  28
  27	  29
  27	  33
  27	  34
  27	  38
  27	  48
  27	  52
  27	  53
  27	  54
  27	  58
  27	  62
  27	  66
  27	  67
  27	  68
  27	  73
  27	  75
  27	  77
  27	  80
  27	  87
  27	  88
  27	  90
  27	  93
  27	  96
  27	  97
  27	  99
  27	 104
  27	 106
  27	 111
  27	 115
  27	 118
  28	  31
  28	  36
  28	  41
  28	  42
  28	  48
  28	  50
  28	  54
  28	  59
  28	  62
  28	  67
  28	  69
  28	  71
  28	  73
  28	  79
  28	  81
  28	  84
  28	  87
  28	  90
  28	 101
  28	 102
  28	 103
  28	 106
  28	 107
  28	 112
  28	 118
  29	  31
  29	  32
  29	  35
  29	  38
  29	  42
  29	  45
  29	  46
  29	  47
  29	  49
  29	  55
  29	  57
  29	  62
  29	  69
  29	  70
  29	  74
  29	  83
  29	  90
  29	  92
  29	  93
  29	  96
  29	  97
  29	 100
  29	 109
  29	 112
  29	 114
  29	 119
  30	  40
  30	  41
  30	  42
  30	  43
  30	  44
  30	  47
  30	  55
  30	  59
  30	  61
  30	  72
  30	  76
  30	  78
  30	  84
  30	  93
  30	  95
  30	  97
  30	 101
  30	 104
  30	 106
  30	 107
  30	 108
  30	 109
  30	 110
  30	 115
  30	 116
  30	 118
  30	 119
  31	  33
  31	  38
  31	  40
  31	  42
  31	  43
  31	  45
  31	  46
  31	  51
  31	  58
  31	  59
  31	  61
  31	  63
  31	  66
  31	  71
  31	  77
  31	  81
  31	  90
  31	  91
  31	  98
  31	 101
  31	 103
  31	 104
  31	 105
  31	 108
  31	 110
  31	 111
  31	 114
  32	  34
  32	  36
  32	  37
  32	  38
  32	  39
  32	  44
  32	  47
  32	  50
  32	  52
  32	  54
  32	  56
  32	  57
  32	  61
  32	  63
  32	  68
  32	  69
  32	  72
  32	  73
  32	  76
  32	  79
  32	  86
  32	  89
  32	  90
  32	  91
  32	  95
  32	  98
  32	  99
  32	 100
  32	 101
  32	 103
  32	 116
  32	 117
  33	  34
  33	  35
  33	  46
  33	  47
  33	  48
  33	  51
  33	  58
  33	  59
  33	  62
  33	  64
  33	  65
  33	  66
  33	  73
  33	  78
  33	  80
  33	  83
  33	  93
  33	  96
  33	 100
  33	 102
  33	 104
  33	 115
  33	 118
  33	 119
  34	  36
  34	  42
  34	  48
  34	  54
  34	  56
  34	  62
  34	  69
  34	  74
  34	  76
  34	  81
  34	  85
  34	  92
  34	  94
  34	  96
  34	 102
  34	 105
  34	 107
  34	 111
  34	 112
  34	 114
  34	 115
  34	 117
  35	  38
  35	  42
  35	  45
  35	  49
  35	  54
  35	  65
  35	  66
  35	  71
  35	  83
  35	  86
  35	  87
  35	  92
  35	  95
  35	  96
  35	 103
  35	 104
  35	 105
  35	 108
  35	 109
  35	 113
  35	 114
  35	 116
  35	 118
  36	  46
  36	  49
  36	  54
  36	  55
  36	  57
  36	  61
  36	  67
  36	  69
  36	  72
  36	  78
  36	  79
  36	  81
  36	  82
  36	  83
  36	  87
  36	  88
  36	  89
  36	  94
  36	 100
  36	 102
  36	 104
  36	 108
  36	 112
  36	 115
  37	  42
  37	  44
  37	  45
  37	  47
  37	  51
  37	  54
  37	  56
  37	  60
  37	  61
  37	  64
  37	  65
  37	  67
  37	  71
  37	  73
  37	  79
  37	  81
  37	  87
  37	  88
  37	  90
  37	  94
  37	  95
  37	  98
  37	  99
  37	 102
  37	 104
  37	 105
  37	 106
  37	 109
  37	 111
  37	 113
  37	 114
  37	 116
  37	 119
  38	  40
  38	  43
  38	  44
  38	  48
  38	  50
  38	  56
  38	  62
  38	  63
  38	  68
  38	  71
  38	  72
  38	  76
  38	  81
  38	  85
  38	  86
  38	  95
  38	 101
  38	 105
  38	 107
  38	 108
  38	 109
  38	 113
  39	  44
  39	  55
  39	  57
  39	  65
  39	  66
  39	  69
  39	  71
  39	  76
  39	  79
  39	  93
  39	  97
  39	  99
  39	 100
  39	 103
  39	 108
  39	 109
  39	 111
  39	 114
  39	 116
  39	 117
  40	  47
  40	  49
  40	  57
  40	  59
  40	  60
  40	  64
  40	  65
  40	  70
  40	  74
  40	  77
  40	  79
  40	  83
  40	  92
  40	  93
  40	  95
  40	  99
  40	 103
  40	 105
  40	 107
  40	 110
  40	 111
  40	 112
  40	 118
  41	  42
  41	  47
  41	  48
  41	  49
  41	  51
  41	  56
  41	  59
  41	  61
  41	  62
  41	  70
  41	  71
  41	  75
  41	  79
  41	  80
  41	  85
  41	  95
  41	  99
  41	 103
  41	 104
  41	 106
  41	 114
  42	  46
  42	  48
  42	  50
  42	  54
  42	  55
  42	  60
  42	  64
  42	  66
  42	  68
  42	  76
  42	  79
  42	  84
  42	  91
  42	  96
  42	 102
  42	 106
  42	 107
  42	 110
  42	 116
  42	 119
  43	  53
  43	  58
  43	  60
  43	  65
  43	  67
  43	  71
  43	  73
  43	  76
  43	  77
  43	  80
  43	  86
  43	  87
  43	  90
  43	  92
  43	  96
  43	  99
  43	 103
  43	 108
  43	 110
  43	 113
  44	  47
  44	  49
  44	  50
  44	  54
  44	  56
  44	  57
  44	  58
  44	  74
  44	  78
  44	  85
  44	  88
  44	  94
  44	 100
  44	 101
  44	 109
  44	 111
  44	 116
  44	 117
  44	 118
  45	  48
  45	  50
  45	  54
  45	  63
  45	  64
  45	  66
  45	  67
  45	  69
  45	  72
  45	  77
  45	  81
  45	  82
  45	  84
  45	  85
  45	  87
  45	  99
  45	 103
  45	 107
  45	 114
  45	 115
  46	  50
  46	  54
  46	  56
  46	  59
  46	  61
  46	  63
  46	  64
  46	  70
  46	  72
  46	  74
  46	  77
  46	  80
  46	  81
  46	  82
  46	  86
  46	  88
  46	  91
  46	  97
  46	 100
  46	 104
  46	 105
  46	 111
  46	 114
  46	 118
  47	  48
  47	  49
  47	  51
  47	  55
  47	  57
  47	  61
  47	  63
  47	  65
  47	  69
  47	  72
  47	  77
  47	  84
  47	  90
  47	  95
  47	  96
  47	 101
  47	 104
  47	 115
  47	 116
  47	 118
  48	  54
  48	  65
  48	  67
  48	  71
  48	  77
  48	  80
  48	  84
  48	  86
  48	  92
  48	  93
  48	  95
  48	 103
  48	 110
  48	 118
  49	  50
  49	  53
  49	  57
  49	  60
  49	  63
  49	  64
  49	  67
  49	  73
  49	  78
  49	  79
  49	  80
  49	  85
  49	  87
  49	  88
  49	 102
  49	 104
  49	 108
  49	 111
  49	 114
  49	 117
  50	  55
  50	  58
  50	  60
  50	  66
  50	  67
  50	  74
  50	  78
  50	  79
  50	  80
  50	  82
  50	 102
  50	 103
  50	 104
  50	 106
  50	 110
  50	 117
  50	 118
  51	  53
  51	  55
  51	  58
  51	  60
  51	  61
  51	  70
  51	  73
  51	  74
  51	  76
  51	  78
  51	  81
  51	  87
  51	  88
  51	  91
  51	  92
  51	  93
  51	  99
  51	 100
  51	 102
  51	 107
  51	 108
  51	 114
  51	 119
  52	  53
  52	  58
  52	  60
  52	  66
  52	  67
  52	  70
  52	  71
  52	  75
  52	  83
  52	  84
  52	  86
  52	  87
  52	  89
  52	  93
  52	 104
  52	 105
  52	 109
  52	 112
  53	  64
  53	  66
  53	  68
  53	  69
  53	  70
  53	  74
  53	  75
  53	  81
  53	  87
  53	  91
  53	  93
  53	  97
  53	  98
  53	  99
  53	 102
  53	 104
  53	 106
  53	 107
  53	 112
  53	 115
  53	 118
  54	  58
  54	  61
  54	  64
  54	  65
  54	  71
  54	  74
  54	  75
  54	  78
  54	  79
  54	  82
  54	  89
  54	  90
  54	  92
  54	  93
  54	  94
  54	  96
  54	  99
  54	 100
  54	 101
  54	 113
  54	 117
  55	  65
  55	  67
  55	  70
  55	  71
  55	  72
  55	  76
  55	  77
  55	  83
  55	  84
  55	  91
  55	  92
  55	  94
  55	  97
  55	 108
  55	 111
  55	 115
  55	 117
  56	  64
  56	  85
  56	  88
  56	  97
  56	 103
  56	 104
  56	 106
  56	 107
  56	 109
  56	 115
  56	 116
  57	  62
  57	  67
  57	  71
  57	  75
  57	  77
  57	  80
  57	  81
  57	  83
  57	  86
  57	  88
  57	  91
  57	  92
  57	  94
  57	  98
  57	  99
  57	 107
  57	 109
  57	 111
  57	 112
  57	 117
  57	 118
  58	  59
  58	  62
  58	  64
  58	  67
  58	  68
  58	  71
  58	  73
  58	  74
  58	  77
  58	  78
  58	  80
  58	  81
  58	  86
  58	  88
  58	  89
  58	  97
  58	 100
  58	 106
  58	 109
  58	 113
  58	 115
  58	 117
  58	 118
  58	 119
  59	  63
  59	  64
  59	  74
  59	  76
  59	  77
  59	  81
  59	  86
  59	  87
  59	  95
  59	  96
  59	  97
  59	  99
  59	 102
  59	 112
  59	 115
  60	  62
  60	  66
  60	  67
  60	  72
  60	  77
  60	  81
  60	  82
  60	  85
  60	  86
  60	  90
  60	  94
  60	  97
  60	 102
  60	 103
  60	 109
  60	 110
  60	 111
  60	 112
  60	 113
  60	 118
  61	  63
  61	  65
  61	  66
  61	  70
  61	  73
  61	  75
  61	  78
  61	  81
  61	  88
  61	  93
  61	  95
  61	  98
  61	  99
  61	 100
  61	 108
  61	 111
  61	 112
  62	  71
  62	  78
  62	  81
  62	  92
  62	  96
  62	  98
  62	  99
  62	 101
  62	 103
  62	 111
  62	 112
  63	  69
  63	  75
  63	  77
  63	  78
  63	  79
  63	  83
  63	  84
  63	  86
  63	  95
  63	  96
  63	 101
  63	 102
  63	 106
  63	 107
  63	 108
  63	 111
  63	 113
  63	 116
  63	 117
  63	 118
  63	 119
  64	  71
  64	  72
  64	  77
  64	  79
  64	  82
  64	  84
  64	  85
  64	  86
  64	  87
  64	  95
  64	  98
  64	 100
  64	 106
  64	 108
  64	 110
  64	 114
  64	 118
  65	  68
  65	  74
  65	  75
  65	  76
  65	  80
  65	  82
  65	  84
  65	  87
  65	  89
  65	  91
  65	  96
  65	  98
  65	 116
  65	 118
  66	  67
  66	  70
  66	  71
  66	  72
  66	  73
  66	  75
  66	  76
  66	  78
  66	  79
  66	  80
  66	  81
  66	  82
  66	  85
  66	  86
  66	  94
  66	  95
  66	  96
  66	 106
  66	 107
  66	 119
  67	  69
  67	  76
  67	  83
  67	  90
  67	  98
  67	 101
  67	 103
  67	 106
  67	 111
  68	  71
  68	  75
  68	  77
  68	  78
  68	  82
  68	  83
  68	  85
  68	  87
  68	  88
  68	  90
  68	  92
  68	  97
  68	  98
  68	 100
  68	 102
  68	 106
  68	 111
  68	 113
  69	  72
  69	  75
  69	  77
  69	  78
  69	  86
  69	  87
  69	  94
  69	  95
  69	  98
  69	 104
  69	 107
  69	 110
  69	 113
  69	 114
  69	 116
  70	  71
  70	  78
  70	  81
  70	  82
  70	  83
  70	  84
  70	  88
  70	  91
  70	  93
  70	  94
  70	 103
  70	 105
  70	 111
  70	 113
  70	 116
  70	 119
  71	  74
  71	  75
  71	  76
  71	  82
  71	  85
  71	  93
  71	  96
  71	  97
  71	  99
  71	 100
  71	 102
  71	 110
  71	 113
  71	 118
  72	  74
  72	  83
  72	  86
  72	  87
  72	  90
  72	 102
  72	 105
  72	 109
  72	 110
  72	 111
  72	 115
  72	 118
  73	  78
  73	  79
  73	  88
  73	  90
  73	  96
  73	  97
  73	 102
  73	 106
  73	 108
  73	 111
  73	 112
  73	 115
  73	 118
  74	  75
  74	  78
  74	  79
  74	  82
  74	  86
  74	  92
  74	  93
  74	  99
  74	 102
  74	 104
  74	 105
  74	 113
  74	 114
  74	 118
  74	 119
  75	  83
  75	  87
  75	  89
  75	  94
  75	  97
  75	 110
  75	 115
  76	  77
  76	  79
  76	  80
  76	  82
  76	  90
  76	  91
  76	  95
  76	 102
  76	 103
  76	 106
  76	 109
  76	 110
  76	 113
  77	  78
  77	  81
  77	  82
  77	  83
  77	  84
  77	  86
  77	  93
  77	  94
  77	 102
  77	 105
  77	 112
  77	 113
  77	 114
  77	 116
  77	 119
  78	  80
  78	  82
  78	  86
  78	  91
  78	  93
  78	  95
  78	  96
  78	  97
  78	  98
  78	  99
  78	 105
  78	 117
  79	  80
  79	  82
  79	  83
  79	  86
  79	  90
  79	  91
  79	  95
  79	  96
  79	  97
  79	 101
  79	 105
  79	 107
  79	 108
  79	 113
  79	 114
  79	 116
  79	 119
  80	  81
  80	  82
  80	  83
  80	  87
  80	  90
  80	  92
  80	  96
  80	 100
  80	 101
  80	 104
  80	 105
  80	 106
  80	 110
  80	 112
  80	 118
  81	  85
  81	  87
  81	  89
  81	  90
  81	  91
  81	  92
  81	  95
  81	  97
  81	 101
  81	 105
  81	 106
  81	 107
  81	 108
  81	 112
  81	 114
  81	 117
  81	 118
  81	 119
  82	  83
  82	  84
  82	  85
  82	  87
  82	  88
  82	  91
  82	  93
  82	  95
  82	 104
  82	 106
  82	 107
  82	 108
  82	 111
  82	 114
  82	 115
  83	  85
  83	  87
  83	  94
  83	  98
  83	 100
  83	 107
  83	 108
  83	 111
  83	 112
  83	 119
  84	  87
  84	  89
  84	  99
  84	 100
  84	 101
  84	 105
  84	 109
  84	 114
  85	  87
  85	  89
  85	  91
  85	  95
  85	  96
  85	 102
  85	 106
  85	 108
  85	 110
  85	 111
  85	 112
  85	 113
  86	  88
  86	  94
  86	  96
  86	  97
  86	 100
  86	 104
  86	 107
  86	 112
  86	 116
  87	  89
  87	  93
  87	  98
  87	 100
  87	 101
  87	 102
  87	 103
  87	 110
  87	 112
  87	 116
  87	 119
  88	 100
  88	 104
  88	 107
  88	 113
  88	 115
  88	 118
  88	 119
  89	  93
  89	  95
  89	 108
  89	 113
  89	 117
  89	 119
  90	  93
  90	  94
  90	 110
  90	 112
  90	 113
  90	 115
  90	 116
  90	 119
  91	  95
  91	  97
  91	  99
  91	 100
  91	 104
  91	 106
  91	 110
  91	 111
  91	 112
  91	 118
  91	 119
  92	  94
  92	  95
  92	  96
  92	  97
  92	  99
  92	 104
  92	 106
  92	 107
  92	 108
  92	 111
  92	 112
  92	 114
  92	 116
  92	 117
  92	 119
  93	  99
  93	 100
  93	 103
  93	 107
  93	 109
  93	 116
  93	 118
  93	 119
  94	 106
  94	 112
  94	 114
  94	 115
  94	 117
  95	 101
  95	 105
  95	 109
  95	 111
  95	 113
  95	 114
  95	 115
  95	 117
  95	 118
  96	  99
  96	 100
  96	 102
  96	 103
  96	 111
  96	 114
  96	 115
  96	 117
  97	  98
  97	  99
  97	 100
  97	 107
  98	 100
  98	 103
  98	 106
  98	 112
  98	 114
  98	 115
  98	 116
  98	 119
  99	 105
  99	 113
  99	 119
 100	 103
 100	 104
 100	 113
 101	 104
 101	 105
 101	 110
 101	 112
 101	 113
 102	 104
 102	 110
 102	 114
 102	 117
 103	 106
 103	 109
 103	 110
 103	 112
 104	 107
 104	 112
 104	 115
 105	 108
 105	 118
 106	 109
 106	 113
 106	 117
 107	 111
 107	 113
 108	 109
 108	 114
 108	 115
 109	 112
 109	 113
 109	 115
 109	 119
 110	 114
 110	 116
 110	 117
 110	 119
 111	 115
 111	 119
 112	 113
 113	 115
 113	 119
 116	 119
 117	 119
;
